[VALIDATOR STDOUT]
Checking plan: /home/fjl2401/Safety-gen/benchmark_problems/rovers/optic_results/rover2_waypoint9_objective4_camera4_goal4_seed9001.plan
Plan executed successfully - checking goal
Goal not satisfied
Plan invalid


Failed plans:
 /home/fjl2401/Safety-gen/benchmark_problems/rovers/optic_results/rover2_waypoint9_objective4_camera4_goal4_seed9001.plan
